100 57465

 124 7
71 484
910 124
191 308
822 927
545 162
78 966
956 206
247 742
860 547
169 885
854 554
14 535
512 196
770 167
935 917
910 328
820 373
889 760
200 339
285 953
289 738
378 598
394 881
545 50
160 258
692 466
168 227
311 744
504 920
797 424
740 343
646 962
156 445
548 490
88 352
378 910
414 569
40 763
274 812
956 342
954 434
353 849
44 364
180 794
393 941
948 624
142 742
764 806
109 846
982 396
382 52
776 402
343 674
628 451
193 749
147 357
939 635
918 187
888 750
626 546
809 205
70 292
335 749
314 483
636 217
356 968
149 716
597 958
815 428
383 476
133 898
197 526
238 708
300 253
643 447
601 124
697 206
363 1
824 40
205 978
470 243
801 664
181 840
110 551
884 154
343 729
684 601
26 732
691 770
317 976
56 574
610 342
241 649
387 69
81 898
148 120
298 328
90 816
911 598
